25
1 0 24
2 0 39
2 1 71
3 0 4
3 1 21
3 2 56
4 0 13
4 1 100
4 2 22
4 3 59
5 0 49
5 1 7
5 2 36
5 3 49
5 4 30
6 0 88
6 1 75
6 2 77
6 3 14
6 4 37
6 5 28
7 0 36
7 1 4
7 2 99
7 3 65
7 4 8
7 5 37
7 6 9
8 0 38
8 1 13
8 2 30
8 3 27
8 4 26
8 5 87
8 6 5
8 7 89
9 0 27
9 1 79
9 2 52
9 3 96
9 4 18
9 5 61
9 6 13
9 7 17
9 8 12
10 0 66
10 1 93
10 2 87
10 3 98
10 4 18
10 5 12
10 6 8
10 7 38
10 8 21
10 9 85
11 0 94
11 1 50
11 2 95
11 3 72
11 4 17
11 5 20
11 6 6
11 7 35
11 8 47
11 9 6
11 10 16
12 0 14
12 1 87
12 2 20
12 3 44
12 4 80
12 5 52
12 6 29
12 7 23
12 8 53
12 9 44
12 10 89
12 11 86
13 0 80
13 1 9
13 2 96
13 3 31
13 4 7
13 5 96
13 6 49
13 7 25
13 8 4
13 9 45
13 10 27
13 11 68
13 12 17
14 0 68
14 1 43
14 2 22
14 3 54
14 4 17
14 5 22
14 6 57
14 7 38
14 8 37
14 9 15
14 10 99
14 11 78
14 12 46
14 13 48
15 0 65
15 1 39
15 2 14
15 3 68
15 4 21
15 5 21
15 6 6
15 7 30
15 8 100
15 9 67
15 10 20
15 11 46
15 12 60
15 13 68
15 14 45
16 0 88
16 1 84
16 2 31
16 3 6
16 4 99
16 5 43
16 6 28
16 7 75
16 8 84
16 9 62
16 10 46
16 11 71
16 12 63
16 13 79
16 14 1
16 15 76
17 0 13
17 1 88
17 2 90
17 3 28
17 4 32
17 5 81
17 6 91
17 7 84
17 8 4
17 9 56
17 10 33
17 11 59
17 12 47
17 13 49
17 14 5
17 15 82
17 16 67
18 0 1
18 1 68
18 2 23
18 3 62
18 4 69
18 5 91
18 6 80
18 7 41
18 8 45
18 9 23
18 10 52
18 11 44
18 12 55
18 13 72
18 14 1
18 15 1
18 16 17
18 17 69
19 0 3
19 1 43
19 2 16
19 3 8
19 4 45
19 5 61
19 6 9
19 7 9
19 8 95
19 9 90
19 10 67
19 11 55
19 12 74
19 13 31
19 14 21
19 15 70
19 16 97
19 17 76
19 18 61
20 0 66
20 1 64
20 2 74
20 3 28
20 4 65
20 5 15
20 6 55
20 7 65
20 8 74
20 9 83
20 10 18
20 11 42
20 12 69
20 13 14
20 14 24
20 15 59
20 16 19
20 17 30
20 18 69
20 19 98
21 0 56
21 1 50
21 2 27
21 3 80
21 4 63
21 5 10
21 6 74
21 7 30
21 8 55
21 9 36
21 10 45
21 11 84
21 12 48
21 13 63
21 14 87
21 15 73
21 16 69
21 17 6
21 18 2
21 19 63
21 20 35
22 0 25
22 1 92
22 2 56
22 3 5
22 4 34
22 5 57
22 6 66
22 7 93
22 8 58
22 9 14
22 10 24
22 11 76
22 12 33
22 13 16
22 14 85
22 15 68
22 16 94
22 17 3
22 18 40
22 19 8
22 20 13
22 21 25
23 0 45
23 1 1
23 2 61
23 3 97
23 4 30
23 5 19
23 6 29
23 7 89
23 8 53
23 9 25
23 10 17
23 11 58
23 12 99
23 13 7
23 14 74
23 15 71
23 16 55
23 17 10
23 18 65
23 19 91
23 20 93
23 21 11
23 22 72
24 0 6
24 1 55
24 2 92
24 3 84
24 4 31
24 5 28
24 6 75
24 7 11
24 8 13
24 9 33
24 10 46
24 11 33
24 12 23
24 13 73
24 14 82
24 15 76
24 16 12
24 17 32
24 18 43
24 19 69
24 20 54
24 21 97
24 22 7
24 23 25
